c *********************************
c * Circuit generated by BenCGen
c *
c * RippleCarryAdder_80_80_80_InOutT
c *
c * Ports with 1 gate(s): 1
c * Ports with 2 gate(s): 401
c * Total gates: 402
c *********************************
p cnf 562 1365
1 243 0
-1 -243 0
1 -242 0
243 -242 0
-1 -243 242 0
1 81 -245 0
-1 81 245 0
1 -81 245 0
-1 -81 -245 0
245 242 -161 0
-245 242 161 0
245 -242 161 0
-245 -242 -161 0
242 -246 0
245 -246 0
-242 -245 246 0
81 -247 0
1 -247 0
-81 -1 247 0
-246 244 0
-247 244 0
246 247 -244 0
2 82 -249 0
-2 82 249 0
2 -82 249 0
-2 -82 -249 0
249 244 -162 0
-249 244 162 0
249 -244 162 0
-249 -244 -162 0
244 -250 0
249 -250 0
-244 -249 250 0
82 -251 0
2 -251 0
-82 -2 251 0
-250 248 0
-251 248 0
250 251 -248 0
3 83 -253 0
-3 83 253 0
3 -83 253 0
-3 -83 -253 0
253 248 -163 0
-253 248 163 0
253 -248 163 0
-253 -248 -163 0
248 -254 0
253 -254 0
-248 -253 254 0
83 -255 0
3 -255 0
-83 -3 255 0
-254 252 0
-255 252 0
254 255 -252 0
4 84 -257 0
-4 84 257 0
4 -84 257 0
-4 -84 -257 0
257 252 -164 0
-257 252 164 0
257 -252 164 0
-257 -252 -164 0
252 -258 0
257 -258 0
-252 -257 258 0
84 -259 0
4 -259 0
-84 -4 259 0
-258 256 0
-259 256 0
258 259 -256 0
5 85 -261 0
-5 85 261 0
5 -85 261 0
-5 -85 -261 0
261 256 -165 0
-261 256 165 0
261 -256 165 0
-261 -256 -165 0
256 -262 0
261 -262 0
-256 -261 262 0
85 -263 0
5 -263 0
-85 -5 263 0
-262 260 0
-263 260 0
262 263 -260 0
6 86 -265 0
-6 86 265 0
6 -86 265 0
-6 -86 -265 0
265 260 -166 0
-265 260 166 0
265 -260 166 0
-265 -260 -166 0
260 -266 0
265 -266 0
-260 -265 266 0
86 -267 0
6 -267 0
-86 -6 267 0
-266 264 0
-267 264 0
266 267 -264 0
7 87 -269 0
-7 87 269 0
7 -87 269 0
-7 -87 -269 0
269 264 -167 0
-269 264 167 0
269 -264 167 0
-269 -264 -167 0
264 -270 0
269 -270 0
-264 -269 270 0
87 -271 0
7 -271 0
-87 -7 271 0
-270 268 0
-271 268 0
270 271 -268 0
8 88 -273 0
-8 88 273 0
8 -88 273 0
-8 -88 -273 0
273 268 -168 0
-273 268 168 0
273 -268 168 0
-273 -268 -168 0
268 -274 0
273 -274 0
-268 -273 274 0
88 -275 0
8 -275 0
-88 -8 275 0
-274 272 0
-275 272 0
274 275 -272 0
9 89 -277 0
-9 89 277 0
9 -89 277 0
-9 -89 -277 0
277 272 -169 0
-277 272 169 0
277 -272 169 0
-277 -272 -169 0
272 -278 0
277 -278 0
-272 -277 278 0
89 -279 0
9 -279 0
-89 -9 279 0
-278 276 0
-279 276 0
278 279 -276 0
10 90 -281 0
-10 90 281 0
10 -90 281 0
-10 -90 -281 0
281 276 -170 0
-281 276 170 0
281 -276 170 0
-281 -276 -170 0
276 -282 0
281 -282 0
-276 -281 282 0
90 -283 0
10 -283 0
-90 -10 283 0
-282 280 0
-283 280 0
282 283 -280 0
11 91 -285 0
-11 91 285 0
11 -91 285 0
-11 -91 -285 0
285 280 -171 0
-285 280 171 0
285 -280 171 0
-285 -280 -171 0
280 -286 0
285 -286 0
-280 -285 286 0
91 -287 0
11 -287 0
-91 -11 287 0
-286 284 0
-287 284 0
286 287 -284 0
12 92 -289 0
-12 92 289 0
12 -92 289 0
-12 -92 -289 0
289 284 -172 0
-289 284 172 0
289 -284 172 0
-289 -284 -172 0
284 -290 0
289 -290 0
-284 -289 290 0
92 -291 0
12 -291 0
-92 -12 291 0
-290 288 0
-291 288 0
290 291 -288 0
13 93 -293 0
-13 93 293 0
13 -93 293 0
-13 -93 -293 0
293 288 -173 0
-293 288 173 0
293 -288 173 0
-293 -288 -173 0
288 -294 0
293 -294 0
-288 -293 294 0
93 -295 0
13 -295 0
-93 -13 295 0
-294 292 0
-295 292 0
294 295 -292 0
14 94 -297 0
-14 94 297 0
14 -94 297 0
-14 -94 -297 0
297 292 -174 0
-297 292 174 0
297 -292 174 0
-297 -292 -174 0
292 -298 0
297 -298 0
-292 -297 298 0
94 -299 0
14 -299 0
-94 -14 299 0
-298 296 0
-299 296 0
298 299 -296 0
15 95 -301 0
-15 95 301 0
15 -95 301 0
-15 -95 -301 0
301 296 -175 0
-301 296 175 0
301 -296 175 0
-301 -296 -175 0
296 -302 0
301 -302 0
-296 -301 302 0
95 -303 0
15 -303 0
-95 -15 303 0
-302 300 0
-303 300 0
302 303 -300 0
16 96 -305 0
-16 96 305 0
16 -96 305 0
-16 -96 -305 0
305 300 -176 0
-305 300 176 0
305 -300 176 0
-305 -300 -176 0
300 -306 0
305 -306 0
-300 -305 306 0
96 -307 0
16 -307 0
-96 -16 307 0
-306 304 0
-307 304 0
306 307 -304 0
17 97 -309 0
-17 97 309 0
17 -97 309 0
-17 -97 -309 0
309 304 -177 0
-309 304 177 0
309 -304 177 0
-309 -304 -177 0
304 -310 0
309 -310 0
-304 -309 310 0
97 -311 0
17 -311 0
-97 -17 311 0
-310 308 0
-311 308 0
310 311 -308 0
18 98 -313 0
-18 98 313 0
18 -98 313 0
-18 -98 -313 0
313 308 -178 0
-313 308 178 0
313 -308 178 0
-313 -308 -178 0
308 -314 0
313 -314 0
-308 -313 314 0
98 -315 0
18 -315 0
-98 -18 315 0
-314 312 0
-315 312 0
314 315 -312 0
19 99 -317 0
-19 99 317 0
19 -99 317 0
-19 -99 -317 0
317 312 -179 0
-317 312 179 0
317 -312 179 0
-317 -312 -179 0
312 -318 0
317 -318 0
-312 -317 318 0
99 -319 0
19 -319 0
-99 -19 319 0
-318 316 0
-319 316 0
318 319 -316 0
20 100 -321 0
-20 100 321 0
20 -100 321 0
-20 -100 -321 0
321 316 -180 0
-321 316 180 0
321 -316 180 0
-321 -316 -180 0
316 -322 0
321 -322 0
-316 -321 322 0
100 -323 0
20 -323 0
-100 -20 323 0
-322 320 0
-323 320 0
322 323 -320 0
21 101 -325 0
-21 101 325 0
21 -101 325 0
-21 -101 -325 0
325 320 -181 0
-325 320 181 0
325 -320 181 0
-325 -320 -181 0
320 -326 0
325 -326 0
-320 -325 326 0
101 -327 0
21 -327 0
-101 -21 327 0
-326 324 0
-327 324 0
326 327 -324 0
22 102 -329 0
-22 102 329 0
22 -102 329 0
-22 -102 -329 0
329 324 -182 0
-329 324 182 0
329 -324 182 0
-329 -324 -182 0
324 -330 0
329 -330 0
-324 -329 330 0
102 -331 0
22 -331 0
-102 -22 331 0
-330 328 0
-331 328 0
330 331 -328 0
23 103 -333 0
-23 103 333 0
23 -103 333 0
-23 -103 -333 0
333 328 -183 0
-333 328 183 0
333 -328 183 0
-333 -328 -183 0
328 -334 0
333 -334 0
-328 -333 334 0
103 -335 0
23 -335 0
-103 -23 335 0
-334 332 0
-335 332 0
334 335 -332 0
24 104 -337 0
-24 104 337 0
24 -104 337 0
-24 -104 -337 0
337 332 -184 0
-337 332 184 0
337 -332 184 0
-337 -332 -184 0
332 -338 0
337 -338 0
-332 -337 338 0
104 -339 0
24 -339 0
-104 -24 339 0
-338 336 0
-339 336 0
338 339 -336 0
25 105 -341 0
-25 105 341 0
25 -105 341 0
-25 -105 -341 0
341 336 -185 0
-341 336 185 0
341 -336 185 0
-341 -336 -185 0
336 -342 0
341 -342 0
-336 -341 342 0
105 -343 0
25 -343 0
-105 -25 343 0
-342 340 0
-343 340 0
342 343 -340 0
26 106 -345 0
-26 106 345 0
26 -106 345 0
-26 -106 -345 0
345 340 -186 0
-345 340 186 0
345 -340 186 0
-345 -340 -186 0
340 -346 0
345 -346 0
-340 -345 346 0
106 -347 0
26 -347 0
-106 -26 347 0
-346 344 0
-347 344 0
346 347 -344 0
27 107 -349 0
-27 107 349 0
27 -107 349 0
-27 -107 -349 0
349 344 -187 0
-349 344 187 0
349 -344 187 0
-349 -344 -187 0
344 -350 0
349 -350 0
-344 -349 350 0
107 -351 0
27 -351 0
-107 -27 351 0
-350 348 0
-351 348 0
350 351 -348 0
28 108 -353 0
-28 108 353 0
28 -108 353 0
-28 -108 -353 0
353 348 -188 0
-353 348 188 0
353 -348 188 0
-353 -348 -188 0
348 -354 0
353 -354 0
-348 -353 354 0
108 -355 0
28 -355 0
-108 -28 355 0
-354 352 0
-355 352 0
354 355 -352 0
29 109 -357 0
-29 109 357 0
29 -109 357 0
-29 -109 -357 0
357 352 -189 0
-357 352 189 0
357 -352 189 0
-357 -352 -189 0
352 -358 0
357 -358 0
-352 -357 358 0
109 -359 0
29 -359 0
-109 -29 359 0
-358 356 0
-359 356 0
358 359 -356 0
30 110 -361 0
-30 110 361 0
30 -110 361 0
-30 -110 -361 0
361 356 -190 0
-361 356 190 0
361 -356 190 0
-361 -356 -190 0
356 -362 0
361 -362 0
-356 -361 362 0
110 -363 0
30 -363 0
-110 -30 363 0
-362 360 0
-363 360 0
362 363 -360 0
31 111 -365 0
-31 111 365 0
31 -111 365 0
-31 -111 -365 0
365 360 -191 0
-365 360 191 0
365 -360 191 0
-365 -360 -191 0
360 -366 0
365 -366 0
-360 -365 366 0
111 -367 0
31 -367 0
-111 -31 367 0
-366 364 0
-367 364 0
366 367 -364 0
32 112 -369 0
-32 112 369 0
32 -112 369 0
-32 -112 -369 0
369 364 -192 0
-369 364 192 0
369 -364 192 0
-369 -364 -192 0
364 -370 0
369 -370 0
-364 -369 370 0
112 -371 0
32 -371 0
-112 -32 371 0
-370 368 0
-371 368 0
370 371 -368 0
33 113 -373 0
-33 113 373 0
33 -113 373 0
-33 -113 -373 0
373 368 -193 0
-373 368 193 0
373 -368 193 0
-373 -368 -193 0
368 -374 0
373 -374 0
-368 -373 374 0
113 -375 0
33 -375 0
-113 -33 375 0
-374 372 0
-375 372 0
374 375 -372 0
34 114 -377 0
-34 114 377 0
34 -114 377 0
-34 -114 -377 0
377 372 -194 0
-377 372 194 0
377 -372 194 0
-377 -372 -194 0
372 -378 0
377 -378 0
-372 -377 378 0
114 -379 0
34 -379 0
-114 -34 379 0
-378 376 0
-379 376 0
378 379 -376 0
35 115 -381 0
-35 115 381 0
35 -115 381 0
-35 -115 -381 0
381 376 -195 0
-381 376 195 0
381 -376 195 0
-381 -376 -195 0
376 -382 0
381 -382 0
-376 -381 382 0
115 -383 0
35 -383 0
-115 -35 383 0
-382 380 0
-383 380 0
382 383 -380 0
36 116 -385 0
-36 116 385 0
36 -116 385 0
-36 -116 -385 0
385 380 -196 0
-385 380 196 0
385 -380 196 0
-385 -380 -196 0
380 -386 0
385 -386 0
-380 -385 386 0
116 -387 0
36 -387 0
-116 -36 387 0
-386 384 0
-387 384 0
386 387 -384 0
37 117 -389 0
-37 117 389 0
37 -117 389 0
-37 -117 -389 0
389 384 -197 0
-389 384 197 0
389 -384 197 0
-389 -384 -197 0
384 -390 0
389 -390 0
-384 -389 390 0
117 -391 0
37 -391 0
-117 -37 391 0
-390 388 0
-391 388 0
390 391 -388 0
38 118 -393 0
-38 118 393 0
38 -118 393 0
-38 -118 -393 0
393 388 -198 0
-393 388 198 0
393 -388 198 0
-393 -388 -198 0
388 -394 0
393 -394 0
-388 -393 394 0
118 -395 0
38 -395 0
-118 -38 395 0
-394 392 0
-395 392 0
394 395 -392 0
39 119 -397 0
-39 119 397 0
39 -119 397 0
-39 -119 -397 0
397 392 -199 0
-397 392 199 0
397 -392 199 0
-397 -392 -199 0
392 -398 0
397 -398 0
-392 -397 398 0
119 -399 0
39 -399 0
-119 -39 399 0
-398 396 0
-399 396 0
398 399 -396 0
40 120 -401 0
-40 120 401 0
40 -120 401 0
-40 -120 -401 0
401 396 -200 0
-401 396 200 0
401 -396 200 0
-401 -396 -200 0
396 -402 0
401 -402 0
-396 -401 402 0
120 -403 0
40 -403 0
-120 -40 403 0
-402 400 0
-403 400 0
402 403 -400 0
41 121 -405 0
-41 121 405 0
41 -121 405 0
-41 -121 -405 0
405 400 -201 0
-405 400 201 0
405 -400 201 0
-405 -400 -201 0
400 -406 0
405 -406 0
-400 -405 406 0
121 -407 0
41 -407 0
-121 -41 407 0
-406 404 0
-407 404 0
406 407 -404 0
42 122 -409 0
-42 122 409 0
42 -122 409 0
-42 -122 -409 0
409 404 -202 0
-409 404 202 0
409 -404 202 0
-409 -404 -202 0
404 -410 0
409 -410 0
-404 -409 410 0
122 -411 0
42 -411 0
-122 -42 411 0
-410 408 0
-411 408 0
410 411 -408 0
43 123 -413 0
-43 123 413 0
43 -123 413 0
-43 -123 -413 0
413 408 -203 0
-413 408 203 0
413 -408 203 0
-413 -408 -203 0
408 -414 0
413 -414 0
-408 -413 414 0
123 -415 0
43 -415 0
-123 -43 415 0
-414 412 0
-415 412 0
414 415 -412 0
44 124 -417 0
-44 124 417 0
44 -124 417 0
-44 -124 -417 0
417 412 -204 0
-417 412 204 0
417 -412 204 0
-417 -412 -204 0
412 -418 0
417 -418 0
-412 -417 418 0
124 -419 0
44 -419 0
-124 -44 419 0
-418 416 0
-419 416 0
418 419 -416 0
45 125 -421 0
-45 125 421 0
45 -125 421 0
-45 -125 -421 0
421 416 -205 0
-421 416 205 0
421 -416 205 0
-421 -416 -205 0
416 -422 0
421 -422 0
-416 -421 422 0
125 -423 0
45 -423 0
-125 -45 423 0
-422 420 0
-423 420 0
422 423 -420 0
46 126 -425 0
-46 126 425 0
46 -126 425 0
-46 -126 -425 0
425 420 -206 0
-425 420 206 0
425 -420 206 0
-425 -420 -206 0
420 -426 0
425 -426 0
-420 -425 426 0
126 -427 0
46 -427 0
-126 -46 427 0
-426 424 0
-427 424 0
426 427 -424 0
47 127 -429 0
-47 127 429 0
47 -127 429 0
-47 -127 -429 0
429 424 -207 0
-429 424 207 0
429 -424 207 0
-429 -424 -207 0
424 -430 0
429 -430 0
-424 -429 430 0
127 -431 0
47 -431 0
-127 -47 431 0
-430 428 0
-431 428 0
430 431 -428 0
48 128 -433 0
-48 128 433 0
48 -128 433 0
-48 -128 -433 0
433 428 -208 0
-433 428 208 0
433 -428 208 0
-433 -428 -208 0
428 -434 0
433 -434 0
-428 -433 434 0
128 -435 0
48 -435 0
-128 -48 435 0
-434 432 0
-435 432 0
434 435 -432 0
49 129 -437 0
-49 129 437 0
49 -129 437 0
-49 -129 -437 0
437 432 -209 0
-437 432 209 0
437 -432 209 0
-437 -432 -209 0
432 -438 0
437 -438 0
-432 -437 438 0
129 -439 0
49 -439 0
-129 -49 439 0
-438 436 0
-439 436 0
438 439 -436 0
50 130 -441 0
-50 130 441 0
50 -130 441 0
-50 -130 -441 0
441 436 -210 0
-441 436 210 0
441 -436 210 0
-441 -436 -210 0
436 -442 0
441 -442 0
-436 -441 442 0
130 -443 0
50 -443 0
-130 -50 443 0
-442 440 0
-443 440 0
442 443 -440 0
51 131 -445 0
-51 131 445 0
51 -131 445 0
-51 -131 -445 0
445 440 -211 0
-445 440 211 0
445 -440 211 0
-445 -440 -211 0
440 -446 0
445 -446 0
-440 -445 446 0
131 -447 0
51 -447 0
-131 -51 447 0
-446 444 0
-447 444 0
446 447 -444 0
52 132 -449 0
-52 132 449 0
52 -132 449 0
-52 -132 -449 0
449 444 -212 0
-449 444 212 0
449 -444 212 0
-449 -444 -212 0
444 -450 0
449 -450 0
-444 -449 450 0
132 -451 0
52 -451 0
-132 -52 451 0
-450 448 0
-451 448 0
450 451 -448 0
53 133 -453 0
-53 133 453 0
53 -133 453 0
-53 -133 -453 0
453 448 -213 0
-453 448 213 0
453 -448 213 0
-453 -448 -213 0
448 -454 0
453 -454 0
-448 -453 454 0
133 -455 0
53 -455 0
-133 -53 455 0
-454 452 0
-455 452 0
454 455 -452 0
54 134 -457 0
-54 134 457 0
54 -134 457 0
-54 -134 -457 0
457 452 -214 0
-457 452 214 0
457 -452 214 0
-457 -452 -214 0
452 -458 0
457 -458 0
-452 -457 458 0
134 -459 0
54 -459 0
-134 -54 459 0
-458 456 0
-459 456 0
458 459 -456 0
55 135 -461 0
-55 135 461 0
55 -135 461 0
-55 -135 -461 0
461 456 -215 0
-461 456 215 0
461 -456 215 0
-461 -456 -215 0
456 -462 0
461 -462 0
-456 -461 462 0
135 -463 0
55 -463 0
-135 -55 463 0
-462 460 0
-463 460 0
462 463 -460 0
56 136 -465 0
-56 136 465 0
56 -136 465 0
-56 -136 -465 0
465 460 -216 0
-465 460 216 0
465 -460 216 0
-465 -460 -216 0
460 -466 0
465 -466 0
-460 -465 466 0
136 -467 0
56 -467 0
-136 -56 467 0
-466 464 0
-467 464 0
466 467 -464 0
57 137 -469 0
-57 137 469 0
57 -137 469 0
-57 -137 -469 0
469 464 -217 0
-469 464 217 0
469 -464 217 0
-469 -464 -217 0
464 -470 0
469 -470 0
-464 -469 470 0
137 -471 0
57 -471 0
-137 -57 471 0
-470 468 0
-471 468 0
470 471 -468 0
58 138 -473 0
-58 138 473 0
58 -138 473 0
-58 -138 -473 0
473 468 -218 0
-473 468 218 0
473 -468 218 0
-473 -468 -218 0
468 -474 0
473 -474 0
-468 -473 474 0
138 -475 0
58 -475 0
-138 -58 475 0
-474 472 0
-475 472 0
474 475 -472 0
59 139 -477 0
-59 139 477 0
59 -139 477 0
-59 -139 -477 0
477 472 -219 0
-477 472 219 0
477 -472 219 0
-477 -472 -219 0
472 -478 0
477 -478 0
-472 -477 478 0
139 -479 0
59 -479 0
-139 -59 479 0
-478 476 0
-479 476 0
478 479 -476 0
60 140 -481 0
-60 140 481 0
60 -140 481 0
-60 -140 -481 0
481 476 -220 0
-481 476 220 0
481 -476 220 0
-481 -476 -220 0
476 -482 0
481 -482 0
-476 -481 482 0
140 -483 0
60 -483 0
-140 -60 483 0
-482 480 0
-483 480 0
482 483 -480 0
61 141 -485 0
-61 141 485 0
61 -141 485 0
-61 -141 -485 0
485 480 -221 0
-485 480 221 0
485 -480 221 0
-485 -480 -221 0
480 -486 0
485 -486 0
-480 -485 486 0
141 -487 0
61 -487 0
-141 -61 487 0
-486 484 0
-487 484 0
486 487 -484 0
62 142 -489 0
-62 142 489 0
62 -142 489 0
-62 -142 -489 0
489 484 -222 0
-489 484 222 0
489 -484 222 0
-489 -484 -222 0
484 -490 0
489 -490 0
-484 -489 490 0
142 -491 0
62 -491 0
-142 -62 491 0
-490 488 0
-491 488 0
490 491 -488 0
63 143 -493 0
-63 143 493 0
63 -143 493 0
-63 -143 -493 0
493 488 -223 0
-493 488 223 0
493 -488 223 0
-493 -488 -223 0
488 -494 0
493 -494 0
-488 -493 494 0
143 -495 0
63 -495 0
-143 -63 495 0
-494 492 0
-495 492 0
494 495 -492 0
64 144 -497 0
-64 144 497 0
64 -144 497 0
-64 -144 -497 0
497 492 -224 0
-497 492 224 0
497 -492 224 0
-497 -492 -224 0
492 -498 0
497 -498 0
-492 -497 498 0
144 -499 0
64 -499 0
-144 -64 499 0
-498 496 0
-499 496 0
498 499 -496 0
65 145 -501 0
-65 145 501 0
65 -145 501 0
-65 -145 -501 0
501 496 -225 0
-501 496 225 0
501 -496 225 0
-501 -496 -225 0
496 -502 0
501 -502 0
-496 -501 502 0
145 -503 0
65 -503 0
-145 -65 503 0
-502 500 0
-503 500 0
502 503 -500 0
66 146 -505 0
-66 146 505 0
66 -146 505 0
-66 -146 -505 0
505 500 -226 0
-505 500 226 0
505 -500 226 0
-505 -500 -226 0
500 -506 0
505 -506 0
-500 -505 506 0
146 -507 0
66 -507 0
-146 -66 507 0
-506 504 0
-507 504 0
506 507 -504 0
67 147 -509 0
-67 147 509 0
67 -147 509 0
-67 -147 -509 0
509 504 -227 0
-509 504 227 0
509 -504 227 0
-509 -504 -227 0
504 -510 0
509 -510 0
-504 -509 510 0
147 -511 0
67 -511 0
-147 -67 511 0
-510 508 0
-511 508 0
510 511 -508 0
68 148 -513 0
-68 148 513 0
68 -148 513 0
-68 -148 -513 0
513 508 -228 0
-513 508 228 0
513 -508 228 0
-513 -508 -228 0
508 -514 0
513 -514 0
-508 -513 514 0
148 -515 0
68 -515 0
-148 -68 515 0
-514 512 0
-515 512 0
514 515 -512 0
69 149 -517 0
-69 149 517 0
69 -149 517 0
-69 -149 -517 0
517 512 -229 0
-517 512 229 0
517 -512 229 0
-517 -512 -229 0
512 -518 0
517 -518 0
-512 -517 518 0
149 -519 0
69 -519 0
-149 -69 519 0
-518 516 0
-519 516 0
518 519 -516 0
70 150 -521 0
-70 150 521 0
70 -150 521 0
-70 -150 -521 0
521 516 -230 0
-521 516 230 0
521 -516 230 0
-521 -516 -230 0
516 -522 0
521 -522 0
-516 -521 522 0
150 -523 0
70 -523 0
-150 -70 523 0
-522 520 0
-523 520 0
522 523 -520 0
71 151 -525 0
-71 151 525 0
71 -151 525 0
-71 -151 -525 0
525 520 -231 0
-525 520 231 0
525 -520 231 0
-525 -520 -231 0
520 -526 0
525 -526 0
-520 -525 526 0
151 -527 0
71 -527 0
-151 -71 527 0
-526 524 0
-527 524 0
526 527 -524 0
72 152 -529 0
-72 152 529 0
72 -152 529 0
-72 -152 -529 0
529 524 -232 0
-529 524 232 0
529 -524 232 0
-529 -524 -232 0
524 -530 0
529 -530 0
-524 -529 530 0
152 -531 0
72 -531 0
-152 -72 531 0
-530 528 0
-531 528 0
530 531 -528 0
73 153 -533 0
-73 153 533 0
73 -153 533 0
-73 -153 -533 0
533 528 -233 0
-533 528 233 0
533 -528 233 0
-533 -528 -233 0
528 -534 0
533 -534 0
-528 -533 534 0
153 -535 0
73 -535 0
-153 -73 535 0
-534 532 0
-535 532 0
534 535 -532 0
74 154 -537 0
-74 154 537 0
74 -154 537 0
-74 -154 -537 0
537 532 -234 0
-537 532 234 0
537 -532 234 0
-537 -532 -234 0
532 -538 0
537 -538 0
-532 -537 538 0
154 -539 0
74 -539 0
-154 -74 539 0
-538 536 0
-539 536 0
538 539 -536 0
75 155 -541 0
-75 155 541 0
75 -155 541 0
-75 -155 -541 0
541 536 -235 0
-541 536 235 0
541 -536 235 0
-541 -536 -235 0
536 -542 0
541 -542 0
-536 -541 542 0
155 -543 0
75 -543 0
-155 -75 543 0
-542 540 0
-543 540 0
542 543 -540 0
76 156 -545 0
-76 156 545 0
76 -156 545 0
-76 -156 -545 0
545 540 -236 0
-545 540 236 0
545 -540 236 0
-545 -540 -236 0
540 -546 0
545 -546 0
-540 -545 546 0
156 -547 0
76 -547 0
-156 -76 547 0
-546 544 0
-547 544 0
546 547 -544 0
77 157 -549 0
-77 157 549 0
77 -157 549 0
-77 -157 -549 0
549 544 -237 0
-549 544 237 0
549 -544 237 0
-549 -544 -237 0
544 -550 0
549 -550 0
-544 -549 550 0
157 -551 0
77 -551 0
-157 -77 551 0
-550 548 0
-551 548 0
550 551 -548 0
78 158 -553 0
-78 158 553 0
78 -158 553 0
-78 -158 -553 0
553 548 -238 0
-553 548 238 0
553 -548 238 0
-553 -548 -238 0
548 -554 0
553 -554 0
-548 -553 554 0
158 -555 0
78 -555 0
-158 -78 555 0
-554 552 0
-555 552 0
554 555 -552 0
79 159 -557 0
-79 159 557 0
79 -159 557 0
-79 -159 -557 0
557 552 -239 0
-557 552 239 0
557 -552 239 0
-557 -552 -239 0
552 -558 0
557 -558 0
-552 -557 558 0
159 -559 0
79 -559 0
-159 -79 559 0
-558 556 0
-559 556 0
558 559 -556 0
80 160 -560 0
-80 160 560 0
80 -160 560 0
-80 -160 -560 0
560 556 -240 0
-560 556 240 0
560 -556 240 0
-560 -556 -240 0
556 -561 0
560 -561 0
-556 -560 561 0
160 -562 0
80 -562 0
-160 -80 562 0
-561 241 0
-562 241 0
561 562 -241 0
